c NeuroCodeBench 2.0 CNF formula with verdict Unsat
p cnf 13 78
1 -6 -10 -5 -2 -11 0
1 6 -10 -8 13 -12 -3 0
-1 -10 -8 -11 13 -9 -12 -3 4 0
-1 -10 -8 11 7 12 4 0
-1 -10 -8 11 7 -12 -13 -3 0
-1 -10 8 5 7 -3 -2 -13 4 0
-1 -10 8 5 -7 -3 11 0
-1 10 13 8 -2 6 0
-1 -10 8 -5 -4 -2 -6 7 0
-1 -10 -8 -11 13 -9 -12 3 -5 0
-1 10 -13 -12 -5 0
1 -6 -10 5 -9 -2 0
-1 -10 8 5 7 -3 -2 13 6 12 0
-1 -10 8 -5 -4 2 6 0
-1 10 -13 12 0
-1 10 13 -8 5 -3 0
-1 10 -13 -12 5 6 0
-1 10 13 8 2 -9 -7 0
-1 -10 8 5 7 -3 -2 -13 -4 6 -12 0
-1 -10 8 -5 -4 -2 -6 -7 0
1 6 -10 -8 13 12 0
-1 -10 8 5 7 -3 2 0
1 -6 10 0
1 6 -10 -8 13 -12 3 0
1 6 10 -3 0
1 6 -10 -8 -13 -5 -3 2 12 0
-1 -10 -8 11 7 -12 -13 3 0
-1 10 13 -8 -5 -3 0
-1 10 13 8 -2 -6 0
-1 -10 8 -5 4 12 13 0
-1 -10 8 -5 -4 2 -6 0
-1 10 -13 -12 5 -6 0
1 6 -10 -8 -13 -5 -3 -2 0
-1 10 13 8 2 -9 7 -3 0
-1 -10 -8 -11 13 -9 -12 -3 -4 0
1 -6 -10 5 9 -3 0
-1 -10 -8 11 7 12 -4 0
1 -6 -10 -5 -2 11 0
-1 -10 8 5 7 -3 -2 -13 -4 6 12 0
-1 -10 -8 11 7 -12 13 -2 0
1 6 -10 8 13 0
-1 -10 -8 -11 13 -9 -12 3 5 0
-1 10 13 8 2 9 7 0
1 6 10 3 0
1 6 -10 -8 -13 5 0
1 -6 -10 5 -9 2 0
-1 -10 -8 -11 -13 9 0
-1 -10 8 5 -7 3 -4 0
-1 -10 8 5 -7 -3 -11 0
1 6 -10 -8 -13 -5 3 0
-1 -10 8 5 7 -3 -2 13 6 -12 0
-1 -10 -8 -11 -13 -9 -2 0
-1 -10 -8 11 7 -12 13 2 0
-1 -10 8 5 7 -3 -2 13 -6 0
-1 10 13 8 2 9 -7 0
1 -6 -10 5 9 3 0
-1 10 13 -8 5 3 0
-1 -10 8 -5 4 -12 -7 0
-1 -10 8 -5 4 -12 7 -9 -3 0
-1 -10 -8 11 -7 5 -2 0
1 6 -10 -8 -13 -5 -3 2 -12 0
1 -6 -10 -5 2 0
-1 -10 8 -5 -4 -2 6 0
-1 -10 -8 -11 -13 -9 2 0
-1 10 13 -8 -5 3 0
-1 -10 -8 11 -7 -5 0
-1 -10 8 5 7 -3 -2 -13 -4 -6 0
-1 -10 8 5 7 3 0
1 6 -10 8 -13 0
-1 -10 -8 -11 13 9 0
-1 -10 -8 11 -7 5 2 0
-1 -10 8 -5 4 12 -13 -9 0
-1 -10 -8 -11 13 -9 12 0
-1 -10 8 -5 4 12 -13 9 0
-1 -10 8 -5 4 -12 7 9 0
-1 -10 8 5 -7 3 4 0
-1 10 13 8 2 -9 7 3 0
-1 -10 8 -5 4 -12 7 -9 3 0
